
Gurobi 11.0.0 (linux64) logging started Tue Sep 17 03:27:47 2024

Set parameter LogFile to value "gurobi.log"
Set parameter InfUnbdInfo to value 1
Gurobi Optimizer version 11.0.0 build v11.0.0rc2 (linux64 - "Ubuntu 22.04.4 LTS")

CPU model: AMD EPYC 7V13 64-Core Processor, instruction set [SSE2|AVX|AVX2]
Thread count: 128 physical cores, 128 logical processors, using up to 32 threads

Optimize a model with 42 rows, 1904 columns and 149 nonzeros
Model fingerprint: 0x936ea93f
Model has 2066 quadratic constraints
Model has 1 general constraint
Variable types: 638 continuous, 1266 integer (0 binary)
Coefficient statistics:
  Matrix range     [1e+00, 1e+05]
  QMatrix range    [1e+00, 1e+05]
  QLMatrix range   [1e+00, 1e+05]
  Objective range  [1e+00, 1e+00]
  Bounds range     [1e+00, 5e+13]
  RHS range        [1e+00, 1e+00]
  QRHS range       [1e+00, 2e+06]
Warning: Model contains large bounds
         Consider reformulating model or setting NumericFocus parameter
         to avoid numerical issues.
Using branch priorities (all 0).
Presolve added 29 rows and 0 columns
Presolve removed 0 rows and 224 columns
Presolve time: 0.02s
Presolved: 7133 rows, 2540 columns, 18310 nonzeros
Presolved model has 18 SOS constraint(s)
Presolved model has 1350 bilinear constraint(s)
Warning: Model contains variables with very large bounds participating
         in product terms.
         Presolve was not able to compute smaller bounds for these variables.
         Consider bounding these variables or reformulating the model.


Solving non-convex MIQCP

Variable types: 950 continuous, 1590 integer (593 binary)

Root relaxation: objective 4.276869e+01, 293 iterations, 0.01 seconds (0.01 work units)

    Nodes    |    Current Node    |     Objective Bounds      |     Work
 Expl Unexpl |  Obj  Depth IntInf | Incumbent    BestBd   Gap | It/Node Time

     0     0   42.76869    0  154          -   42.76869      -     -    0s
H    0     0                    8.685255e+08   42.76869   100%     -    0s
H    0     0                    4765520.0000   42.76869   100%     -    0s
     0     0 71698.4418    0  231 4765520.00 71698.4418  98.5%     -    0s
     0     0 71699.2751    0  230 4765520.00 71699.2751  98.5%     -    0s
H    0     0                    450680.00000 120025.274  73.4%     -    0s
H    0     0                    440360.00000 120025.274  72.7%     -    0s
     0     0 120025.274    0  236 440360.000 120025.274  72.7%     -    0s
     0     0 120027.879    0  160 440360.000 120027.879  72.7%     -    0s
H    0     0                    170640.00000 120031.682  29.7%     -    0s
     0     0 120031.682    0  160 170640.000 120031.682  29.7%     -    0s
     0     0 120032.930    0  157 170640.000 120032.930  29.7%     -    0s
H    0     0                    147080.00000 120032.930  18.4%     -    0s
     0     0 120032.930    0  109 147080.000 120032.930  18.4%     -    0s
     0     0 120032.930    0  125 147080.000 120032.930  18.4%     -    0s
H    0     0                    131480.00000 120032.930  8.71%     -    0s
     0     0 120034.395    0  127 131480.000 120034.395  8.71%     -    0s
     0     0 120038.789    0  135 131480.000 120038.789  8.70%     -    0s
H    0     0                    130880.00000 120038.789  8.28%     -    0s
H    0     0                    128680.00000 120038.789  6.72%     -    0s
     0     0 120046.556    0  130 128680.000 120046.556  6.71%     -    0s
     0     0 120071.860    0  117 128680.000 120071.860  6.69%     -    1s
     0     0 120075.876    0  132 128680.000 120075.876  6.69%     -    1s
     0     0 120091.021    0  122 128680.000 120091.021  6.67%     -    1s
     0     0 120108.369    0  123 128680.000 120108.369  6.66%     -    1s
     0     0 120138.007    0  120 128680.000 120138.007  6.64%     -    1s
     0     0 120141.383    0  132 128680.000 120141.383  6.64%     -    1s
     0     0 120142.068    0  129 128680.000 120142.068  6.64%     -    1s
     0     0 120221.176    0  128 128680.000 120221.176  6.57%     -    1s
     0     0 120258.143    0  131 128680.000 120258.143  6.54%     -    1s
     0     0 120258.143    0  131 128680.000 120258.143  6.54%     -    1s
     0     0 120258.143    0  133 128680.000 120258.143  6.54%     -    1s
     0     0 120258.143    0  135 128680.000 120258.143  6.54%     -    1s
     0     0 120258.143    0  124 128680.000 120258.143  6.54%     -    1s
     0     0 120259.563    0  110 128680.000 120259.563  6.54%     -    2s
     0     2 120259.563    0  110 128680.000 120259.563  6.54%     -    2s

Cutting planes:
  Gomory: 19
  Implied bound: 4
  MIR: 90
  StrongCG: 14
  RLT: 43

Explored 2469 nodes (30548 simplex iterations) in 4.07 seconds (0.72 work units)
Thread count was 32 (of 128 available processors)

Solution count 10: 128680 130880 131480 ... 8.68526e+08

Optimal solution found (tolerance 1.00e-10)
Best objective 1.286800000000e+05, best bound 1.286800000000e+05, gap 0.0000%
